33D32945 STP File, STP Format Version 1.0

SECTION Comments
Name "shell_n11_d2_s18"
Problem "Euclidean Steiner Tree Problem"
Remark "Generated with STPGenerator. 2 dimensions."
END

SECTION Graph
Nodes 11
END

SECTION Coordinates
DD 0 0.8488086147 -0.5287002323
DD 1 -0.9388600637 -0.3442989700
DD 2 -0.9461775505 -0.3236480233
DD 3 0.4218419049 0.9066694035
DD 4 0.7342380443 -0.6788921080
DD 5 -0.6895780459 -0.7242113770
DD 6 0.9397988554 -0.3417281250
DD 7 0.5031249070 0.8642137050
DD 8 0.1810496228 -0.9834739621
DD 9 -0.0675321327 0.9977170997
DD 10 0.9716234434 -0.2365330509
END
